max_t = 3;

% n = 2;
% M =
% [| 1, 1
%  | 0, 1
%  |];
% 1 steps

% n = 2;
% M =
% [| 1, 0
%  | 0, 1
%  |];
% 0 steps

% n = 3;
% M = 
% [| 0, 1, 1
%  | 1, 0, 0
%  | 0, 0, 1
%  |];
% 1 steps

% n = 3;
% M = 
% [| 1, 0, 1
%  | 0, 1, 0
%  | 1, 0, 0
%  |];
% 1 steps

% n = 5;
% M = [|1,0,1,0,1
%      |1,1,1,1,1
%      |0,0,0,0,0
%      |0,0,1,0,0
%      |0,1,0,1,0
%      |];
% unsatisfiable with max_t <= 6

% n = 5;
% M = 
% [| 0, 0, 0, 1, 0
%  | 1, 0, 0, 0, 0
%  | 1, 0, 0, 0, 1
%  | 0, 1, 0, 0, 0
%  | 0, 0, 1, 0, 0
%  |];
% 1 step